(set-option :timeout 5000)
(declare-fun tvw_a (Int) Int)
(declare-fun tvw_b (Int) Int)
(declare-fun tvw_first (Int) Int)
(declare-fun tvw_second (Int) Int)
(declare-fun tvw_c () Int)
(assert(not (or (> (tvw_a (+ (+ (+ (+ 0 0) 0) 0) 0)) 92) (< (tvw_a (+ (+ (+ (+ 0 0) 0) 0) 0)) 92))))
(assert(not (or (> (tvw_b (+ (+ (+ (+ 0 0) 0) 0) 0)) 92) (< (tvw_b (+ (+ (+ (+ 0 0) 0) 0) 0)) 92))))
(assert(not (or (> (tvw_first (+ (+ (+ (+ 0 0) 0) 0) 0)) (tvw_second (+ (+ (+ (+ 0 0) 0) 0) 0))) (< (tvw_first (+ (+ (+ (+ 0 0) 0) 0) 0)) (tvw_second (+ (+ (+ (+ 0 0) 0) 0) 0))))))
(check-sat)(get-model)
